(set-logic SLHV)
(declare-hvar emp IntHeap)
(declare-locvar nil IntLoc)
(declare-datatype pt_record_0 ((Pt_R_0 (loc IntLoc))))
(declare-datatype pt_record_1 ((Pt_R_1 (data Int))))
(declare-const invalidDeref_1 Bool)
(declare-const loc_1 Int)
(declare-const $r_main0_0 Int)
(declare-const $r_main0_1 Int)
(declare-locvar $p9_free_data0_0 IntLoc)
(declare-locvar $p9_free_data0_1 IntLoc)
(declare-locvar $p8_free_data0_0 IntLoc)
(declare-locvar $p8_free_data0_1 IntLoc)
(declare-locvar $p11_free_data0_0 IntLoc)
(declare-locvar $p11_free_data0_1 IntLoc)
(declare-locvar $p10_free_data0_0 IntLoc)
(declare-locvar $p10_free_data0_1 IntLoc)
(declare-const invalidDeref8_1 Bool)
(declare-hvar H7_1 IntHeap)
(declare-hvar H_1 IntHeap)
(declare-hvar AH3_1 IntHeap)
(declare-hvar AH_1 IntHeap)
(declare-locvar $p9_alloc_data01_1 IntLoc)
(declare-locvar $p9_alloc_data0_1 IntLoc)
(declare-locvar $p8_alloc_data01_1 IntLoc)
(declare-locvar $p8_alloc_data0_1 IntLoc)
(declare-locvar $p7_alloc_data01_1 IntLoc)
(declare-locvar $p7_alloc_data0_1 IntLoc)
(declare-locvar $p6_alloc_data01_1 IntLoc)
(declare-locvar $p6_alloc_data0_1 IntLoc)
(declare-locvar $p5_alloc_data01_1 IntLoc)
(declare-locvar $p5_alloc_data0_1 IntLoc)
(declare-locvar $p4_free_data01_1 IntLoc)
(declare-locvar $p4_free_data0_1 IntLoc)
(declare-locvar $p4_alloc_data01_1 IntLoc)
(declare-locvar $p4_alloc_data0_1 IntLoc)
(declare-locvar $p3_free_data01_1 IntLoc)
(declare-locvar $p3_free_data0_1 IntLoc)
(declare-locvar $p3_alloc_data01_1 IntLoc)
(declare-locvar $p3_alloc_data0_1 IntLoc)
(declare-locvar $p2_free_data01_1 IntLoc)
(declare-locvar $p2_free_data0_1 IntLoc)
(declare-locvar $p2_alloc_data01_1 IntLoc)
(declare-locvar $p2_alloc_data0_1 IntLoc)
(declare-locvar $p1_free_data01_1 IntLoc)
(declare-locvar $p1_free_data0_1 IntLoc)
(declare-locvar $p1_alloc_data01_1 IntLoc)
(declare-locvar $p1_alloc_data0_1 IntLoc)
(declare-locvar $p10_alloc_data01_1 IntLoc)
(declare-locvar $p10_alloc_data0_1 IntLoc)
(declare-locvar $p0_main01_1 IntLoc)
(declare-locvar $p0_main0_1 IntLoc)
(declare-locvar $p0_free_data01_1 IntLoc)
(declare-locvar $p0_free_data0_1 IntLoc)
(declare-locvar $p0_alloc_data01_1 IntLoc)
(declare-locvar $p0_alloc_data0_1 IntLoc)
(declare-const $i7_free_data01_1 Int)
(declare-const $i7_free_data0_1 Int)
(declare-const $i6_free_data01_1 Int)
(declare-const $i6_free_data0_1 Int)
(declare-const $i5_free_data01_1 Int)
(declare-const $i5_free_data0_1 Int)
(declare-const invalidDeref7_1 Bool)
(declare-locvar l17_1 IntLoc)
(declare-hvar h15_1 IntHeap)
(declare-locvar l18_1 IntLoc)
(declare-hvar h16_1 IntHeap)
(declare-const invalidDeref6_1 Bool)
(declare-locvar l15_1 IntLoc)
(declare-hvar h13_1 IntHeap)
(declare-locvar l16_1 IntLoc)
(declare-hvar h14_1 IntHeap)
(declare-const invalidDeref5_1 Bool)
(declare-hvar h11_1 IntHeap)
(declare-const d5_1 Int)
(declare-hvar H6_1 IntHeap)
(declare-const d6_1 Int)
(declare-hvar h12 IntHeap)
(declare-const invalidDeref4_1 Bool)
(declare-locvar l13_1 IntLoc)
(declare-hvar h9_1 IntHeap)
(declare-locvar l14_1 IntLoc)
(declare-hvar h10_1 IntHeap)
(declare-const invalidDeref3_1 Bool)
(declare-hvar h7_1 IntHeap)
(declare-const d3_1 Int)
(declare-hvar H5_1 IntHeap)
(declare-const d4_1 Int)
(declare-hvar h8 IntHeap)
(declare-const invalidDeref2_1 Bool)
(declare-locvar l11_1 IntLoc)
(declare-hvar h5_1 IntHeap)
(declare-locvar l12_1 IntLoc)
(declare-hvar h6_1 IntHeap)
(declare-const invalidDeref1_1 Bool)
(declare-hvar h3_1 IntHeap)
(declare-locvar l9_1 IntLoc)
(declare-hvar H4_1 IntHeap)
(declare-locvar l10_1 IntLoc)
(declare-hvar h4 IntHeap)
(declare-locvar l8_1 IntLoc)
(declare-hvar AH2_1 IntHeap)
(declare-const d2_1 Int)
(declare-hvar H3_1 IntHeap)
(declare-const invalidDeref_0 Bool)
(declare-hvar h1_1 IntHeap)
(declare-locvar l6_1 IntLoc)
(declare-hvar H2_1 IntHeap)
(declare-locvar l7_1 IntLoc)
(declare-hvar h2 IntHeap)
(declare-locvar l5_1 IntLoc)
(declare-hvar AH1_1 IntHeap)
(declare-const d1_1 Int)
(declare-hvar H1_1 IntHeap)
(declare-locvar l1_1 IntLoc)
(declare-hvar AH_0 IntHeap)
(declare-locvar l3_1 IntLoc)
(declare-locvar l4_1 IntLoc)
(declare-locvar l2_1 IntLoc)
(declare-hvar H_0 IntHeap)
(declare-const loc_0 Int)
(assert
 (let (($x1089 (= loc_1 2)))
 (let (($x1085 (= $r_main0_1 $r_main0_0)))
 (let (($x1086 (and true $x1085)))
 (let (($x1080 (= $p9_free_data0_1 $p9_free_data0_0)))
 (let (($x1076 (= $p8_free_data0_1 $p8_free_data0_0)))
 (let (($x1072 (= $p11_free_data0_1 $p11_free_data0_0)))
 (let (($x1077 (and (and (and true (= $p10_free_data0_1 $p10_free_data0_0)) $x1072) $x1076)))
 (let (($x1081 (and $x1077 $x1080)))
 (let (($x1063 (= invalidDeref_1 invalidDeref8_1)))
 (let (($x1060 (= H_1 H7_1)))
 (let (($x1057 (= AH_1 AH3_1)))
 (let (($x1054 (= $p9_alloc_data0_1 $p9_alloc_data01_1)))
 (let (($x1051 (= $p8_alloc_data0_1 $p8_alloc_data01_1)))
 (let (($x1048 (= $p7_alloc_data0_1 $p7_alloc_data01_1)))
 (let (($x1045 (= $p6_alloc_data0_1 $p6_alloc_data01_1)))
 (let (($x1042 (= $p5_alloc_data0_1 $p5_alloc_data01_1)))
 (let (($x1039 (= $p4_free_data0_1 $p4_free_data01_1)))
 (let (($x1036 (= $p4_alloc_data0_1 $p4_alloc_data01_1)))
 (let (($x1033 (= $p3_free_data0_1 $p3_free_data01_1)))
 (let (($x1030 (= $p3_alloc_data0_1 $p3_alloc_data01_1)))
 (let (($x1027 (= $p2_free_data0_1 $p2_free_data01_1)))
 (let (($x1024 (= $p2_alloc_data0_1 $p2_alloc_data01_1)))
 (let (($x1021 (= $p1_free_data0_1 $p1_free_data01_1)))
 (let (($x1018 (= $p1_alloc_data0_1 $p1_alloc_data01_1)))
 (let (($x1015 (= $p10_alloc_data0_1 $p10_alloc_data01_1)))
 (let (($x1012 (= $p0_main0_1 $p0_main01_1)))
 (let (($x1009 (= $p0_free_data0_1 $p0_free_data01_1)))
 (let (($x1006 (= $p0_alloc_data0_1 $p0_alloc_data01_1)))
 (let (($x1003 (= $i7_free_data0_1 $i7_free_data01_1)))
 (let (($x1000 (= $i6_free_data0_1 $i6_free_data01_1)))
 (let (($x998 (= $i5_free_data0_1 $i5_free_data01_1)))
 (let (($x1016 (and (and (and (and (and (and $x998 $x1000) $x1003) $x1006) $x1009) $x1012) $x1015)))
 (let (($x1034 (and (and (and (and (and (and $x1016 $x1018) $x1021) $x1024) $x1027) $x1030) $x1033)))
 (let (($x1052 (and (and (and (and (and (and $x1034 $x1036) $x1039) $x1042) $x1045) $x1048) $x1051)))
 (let (($x1061 (and (and (and $x1052 $x1054) $x1057) $x1060)))
 (let (($x747 (= $i7_free_data01_1 0)))
 (let (($x751 (= $i7_free_data01_1 1)))
 (let (($x748 (>= $i5_free_data01_1 $i6_free_data01_1)))
 (let (($x753 (or (and $x748 $x751) (and (not $x748) $x747))))
 (let (($x759 (= invalidDeref8_1 invalidDeref7_1)))
 (let (($x760 (and invalidDeref7_1 $x759)))
 (let (($x761 (= $p4_free_data01_1 l17_1)))
 (let (($x765 (= H7_1 (uplus h15_1 (pt $p3_free_data01_1 (Pt_R_0 l17_1))))))
 (let (($x766 (and $x765 $x761)))
 (let (($x768 (= $p3_free_data01_1 nil)))
 (let (($x772 (= h16_1 (uplus H7_1 (pt $p3_free_data01_1 (Pt_R_0 l18_1))))))
 (let (($x778 (= $p3_free_data01_1 (locadd $p0_free_data01_1 1))))
 (let (($x780 (= invalidDeref7_1 invalidDeref6_1)))
 (let (($x781 (and invalidDeref6_1 $x780)))
 (let (($x782 (= $p2_free_data01_1 l15_1)))
 (let (($x786 (= H7_1 (uplus h13_1 (pt $p1_free_data01_1 (Pt_R_0 l15_1))))))
 (let (($x787 (and $x786 $x782)))
 (let (($x789 (= $p1_free_data01_1 nil)))
 (let (($x793 (= h14_1 (uplus H7_1 (pt $p1_free_data01_1 (Pt_R_0 l16_1))))))
 (let (($x802 (= invalidDeref6_1 invalidDeref5_1)))
 (let (($x803 (and invalidDeref5_1 $x802)))
 (let (($x806 (= H7_1 (uplus h11_1 (pt $p10_alloc_data01_1 (Pt_R_1 8))))))
 (let (($x810 (= H6_1 (uplus h11_1 (pt $p10_alloc_data01_1 (Pt_R_1 d5_1))))))
 (let (($x811 (and $x810 $x806)))
 (let (($x813 (= $p10_alloc_data01_1 nil)))
 (let (($x817 (= h12 (uplus H6_1 (pt $p10_alloc_data01_1 (Pt_R_1 d6_1))))))
 (let (($x822 (= invalidDeref5_1 invalidDeref4_1)))
 (let (($x823 (and invalidDeref4_1 $x822)))
 (let (($x824 (= $p10_alloc_data01_1 l13_1)))
 (let (($x828 (= H6_1 (uplus h9_1 (pt $p9_alloc_data01_1 (Pt_R_0 l13_1))))))
 (let (($x829 (and $x828 $x824)))
 (let (($x831 (= $p9_alloc_data01_1 nil)))
 (let (($x835 (= h10_1 (uplus H6_1 (pt $p9_alloc_data01_1 (Pt_R_0 l14_1))))))
 (let ((?x840 (locadd $p0_alloc_data01_1 1)))
 (let (($x841 (= $p9_alloc_data01_1 ?x840)))
 (let (($x843 (= invalidDeref4_1 invalidDeref3_1)))
 (let (($x844 (and invalidDeref3_1 $x843)))
 (let (($x847 (= H6_1 (uplus h7_1 (pt $p8_alloc_data01_1 (Pt_R_1 4))))))
 (let (($x851 (= H5_1 (uplus h7_1 (pt $p8_alloc_data01_1 (Pt_R_1 d3_1))))))
 (let (($x852 (and $x851 $x847)))
 (let (($x854 (= $p8_alloc_data01_1 nil)))
 (let (($x858 (= h8 (uplus H5_1 (pt $p8_alloc_data01_1 (Pt_R_1 d4_1))))))
 (let (($x863 (= invalidDeref3_1 invalidDeref2_1)))
 (let (($x864 (and invalidDeref2_1 $x863)))
 (let (($x865 (= $p8_alloc_data01_1 l11_1)))
 (let (($x869 (= H5_1 (uplus h5_1 (pt $p7_alloc_data01_1 (Pt_R_0 l11_1))))))
 (let (($x870 (and $x869 $x865)))
 (let (($x872 (= $p7_alloc_data01_1 nil)))
 (let (($x876 (= h6_1 (uplus H5_1 (pt $p7_alloc_data01_1 (Pt_R_0 l12_1))))))
 (let (($x883 (= invalidDeref2_1 invalidDeref1_1)))
 (let (($x884 (and invalidDeref1_1 $x883)))
 (let (($x888 (= H5_1 (uplus h3_1 (pt $p6_alloc_data01_1 (Pt_R_0 $p4_alloc_data01_1))))))
 (let (($x892 (= H4_1 (uplus h3_1 (pt $p6_alloc_data01_1 (Pt_R_0 l9_1))))))
 (let (($x893 (and $x892 $x888)))
 (let (($x895 (= $p6_alloc_data01_1 nil)))
 (let (($x899 (= h4 (uplus H4_1 (pt $p6_alloc_data01_1 (Pt_R_0 l10_1))))))
 (let (($x910 (= AH3_1 (uplus AH2_1 (pt l8_1 (Pt_R_1 4))))))
 (let (($x911 (= $p4_alloc_data01_1 l8_1)))
 (let (($x915 (= H4_1 (uplus H3_1 (pt l8_1 (Pt_R_1 d2_1))))))
 (let (($x917 (and (and $x915 $x911) $x910)))
 (let (($x919 (= invalidDeref1_1 invalidDeref_0)))
 (let (($x920 (and invalidDeref_0 $x919)))
 (let (($x924 (= H3_1 (uplus h1_1 (pt $p3_alloc_data01_1 (Pt_R_0 $p1_alloc_data01_1))))))
 (let (($x928 (= H2_1 (uplus h1_1 (pt $p3_alloc_data01_1 (Pt_R_0 l6_1))))))
 (let (($x929 (and $x928 $x924)))
 (let (($x931 (= $p3_alloc_data01_1 nil)))
 (let (($x935 (= h2 (uplus H2_1 (pt $p3_alloc_data01_1 (Pt_R_0 l7_1))))))
 (let (($x946 (= AH2_1 (uplus AH1_1 (pt l5_1 (Pt_R_1 3))))))
 (let (($x947 (= $p1_alloc_data01_1 l5_1)))
 (let (($x951 (= H2_1 (uplus H1_1 (pt l5_1 (Pt_R_1 d1_1))))))
 (let (($x953 (and (and $x951 $x947) $x946)))
 (let (($x959 (= AH1_1 (uplus AH_0 (pt l1_1 (Pt_R_1 2))))))
 (let (($x960 (= $p0_main01_1 l1_1)))
 (let (($x962 (= l3_1 (locadd l1_1 1))))
 (let ((?x968 (uplus H_0 (uplus (pt l1_1 (Pt_R_0 l2_1)) (pt l3_1 (Pt_R_0 l4_1))))))
 (let (($x969 (= H1_1 ?x968)))
 (let (($x972 (and (and (and $x969 $x962) $x960) $x959)))
 (let (($x974 (and (or $x972 invalidDeref_0) (or (= $p0_alloc_data01_1 $p0_main01_1) invalidDeref_0))))
 (let (($x976 (and (and $x974 (or $x953 invalidDeref_0)) (or (= $p2_alloc_data01_1 $p1_alloc_data01_1) invalidDeref_0))))
 (let (($x977 (and $x976 (or (= $p3_alloc_data01_1 $p0_alloc_data01_1) invalidDeref_0))))
 (let (($x978 (and $x977 (or (or (and (or $x935 $x931) invalidDeref1_1) (and $x929 $x919)) $x920))))
 (let (($x980 (and (and $x978 (or $x917 invalidDeref1_1)) (or (= $p5_alloc_data01_1 $p4_alloc_data01_1) invalidDeref1_1))))
 (let (($x982 (and (and $x980 (or (= $p6_alloc_data01_1 ?x840) invalidDeref1_1)) (or (or (and (or $x899 $x895) invalidDeref2_1) (and $x893 $x883)) $x884))))
 (let (($x983 (and $x982 (or (= $p7_alloc_data01_1 $p0_alloc_data01_1) invalidDeref2_1))))
 (let (($x984 (and $x983 (or (or (and (or $x876 $x872) invalidDeref3_1) (and $x870 $x863)) $x864))))
 (let (($x985 (and $x984 (or (or (and (or $x858 $x854) invalidDeref4_1) (and $x852 $x843)) $x844))))
 (let (($x987 (and (and $x985 (or $x841 invalidDeref4_1)) (or (or (and (or $x835 $x831) invalidDeref5_1) (and $x829 $x822)) $x823))))
 (let (($x988 (and $x987 (or (or (and (or $x817 $x813) invalidDeref6_1) (and $x811 $x802)) $x803))))
 (let (($x990 (and (and $x988 (or (= $p0_free_data01_1 $p0_main01_1) invalidDeref6_1)) (or (= $p1_free_data01_1 $p0_free_data01_1) invalidDeref6_1))))
 (let (($x991 (and $x990 (or (or (and (or $x793 $x789) invalidDeref7_1) (and $x787 $x780)) $x781))))
 (let (($x993 (and (and $x991 (or $x778 invalidDeref7_1)) (or (or (and (or $x772 $x768) invalidDeref8_1) (and $x766 $x759)) $x760))))
 (let (($x995 (and (and $x993 (or (= $i5_free_data01_1 8) invalidDeref8_1)) (or (= $i6_free_data01_1 8) invalidDeref8_1))))
 (let (($x1082 (and (and (and $x995 (or $x753 invalidDeref8_1)) (and $x1061 $x1063)) $x1081)))
 (let (($x667 (= loc_0 1)))
 (let (($x671 (not invalidDeref_0)))
 (let (($x669 (and (and (= H_0 emp) (= AH_0 emp)) $x667)))
 (and (and (and $x669 $x671) (=> $x667 (and (and $x1082 $x1086) $x1089))) invalidDeref_1)))))))))))))))))))))))))))))))))))))))))))))))))))))))))))))))))))))))))))))))))))))))))))))))))))))))))))))))))))))))))))))))))))))
(check-sat)
